\* SO *\
Maximize
OBJ: 22 dec_var_0_0 + 818 dec_var_0_1 + 650 dec_var_0_2 + 848 dec_var_0_3
 + 630 dec_var_0_4 + 648 dec_var_0_5 + 842 dec_var_0_6 + 842 dec_var_0_7
 + 691 dec_var_1_0 + 849 dec_var_1_1 + 615 dec_var_1_2 + 700 dec_var_1_3
 + 653 dec_var_1_4 + 598 dec_var_1_5 + 563 dec_var_1_6 + 563 dec_var_1_7
 + 427 dec_var_2_0 + 413 dec_var_2_1 + 349 dec_var_2_2 + 347 dec_var_2_3
 + 407 dec_var_2_4 + 237 dec_var_2_5 + 465 dec_var_2_6 + 465 dec_var_2_7
 + 345 dec_var_3_0 + 153 dec_var_3_1 + 282 dec_var_3_2 + 301 dec_var_3_3
 + 477 dec_var_3_4 + 432 dec_var_3_5 + 313 dec_var_3_6 + 313 dec_var_3_7
 + 464 dec_var_4_0 + 470 dec_var_4_1 + 126 dec_var_4_2 + 392 dec_var_4_3
 + 534 dec_var_4_4 + 312 dec_var_4_5 + 326 dec_var_4_6 + 326 dec_var_4_7
 + 281 dec_var_5_0 + 144 dec_var_5_1 + 283 dec_var_5_2 + 200 dec_var_5_3
 + 168 dec_var_5_4 + 107 dec_var_5_5 + 148 dec_var_5_6 + 148 dec_var_5_7
 + 238 dec_var_6_0 + 500 dec_var_6_1 + 291 dec_var_6_2 + 434 dec_var_6_3
 + 465 dec_var_6_4 + 488 dec_var_6_5 + 544 dec_var_6_6 + 544 dec_var_6_7
 + 138 dec_var_7_0 + 86 dec_var_7_1 + 119 dec_var_7_2 + 149 dec_var_7_3
 + 92 dec_var_7_4 + 136 dec_var_7_5 + 119 dec_var_7_6 + 119 dec_var_7_7
 + 127 dec_var_8_0 + 124 dec_var_8_1 + 141 dec_var_8_2 + 54 dec_var_8_3
 + 130 dec_var_8_4 + 140 dec_var_8_5 + 75 dec_var_8_6 + 75 dec_var_8_7
 + 70 dec_var_9_0 + 141 dec_var_9_1 + 78 dec_var_9_2 + 106 dec_var_9_3
 + 69 dec_var_9_4 + 51 dec_var_9_5 + 58 dec_var_9_6 + 58 dec_var_9_7
Subject To
_C1: dec_var_0_0 + dec_var_0_1 + dec_var_0_2 + dec_var_0_3 + dec_var_0_4
 + dec_var_0_5 + dec_var_0_6 + dec_var_0_7 <= 1
_C10: dec_var_9_0 + dec_var_9_1 + dec_var_9_2 + dec_var_9_3 + dec_var_9_4
 + dec_var_9_5 + dec_var_9_6 + dec_var_9_7 <= 1
_C11: dec_var_0_0 + dec_var_1_0 + dec_var_2_0 + dec_var_3_0 + dec_var_4_0
 + dec_var_5_0 + dec_var_6_0 + dec_var_7_0 + dec_var_8_0 + dec_var_9_0 <= 1
_C12: dec_var_0_1 + dec_var_1_1 + dec_var_2_1 + dec_var_3_1 + dec_var_4_1
 + dec_var_5_1 + dec_var_6_1 + dec_var_7_1 + dec_var_8_1 + dec_var_9_1 <= 0
_C13: dec_var_0_2 + dec_var_1_2 + dec_var_2_2 + dec_var_3_2 + dec_var_4_2
 + dec_var_5_2 + dec_var_6_2 + dec_var_7_2 + dec_var_8_2 + dec_var_9_2 <= 0
_C14: dec_var_0_3 + dec_var_1_3 + dec_var_2_3 + dec_var_3_3 + dec_var_4_3
 + dec_var_5_3 + dec_var_6_3 + dec_var_7_3 + dec_var_8_3 + dec_var_9_3 <= 2
_C15: dec_var_0_4 + dec_var_1_4 + dec_var_2_4 + dec_var_3_4 + dec_var_4_4
 + dec_var_5_4 + dec_var_6_4 + dec_var_7_4 + dec_var_8_4 + dec_var_9_4 <= 2
_C16: dec_var_0_5 + dec_var_1_5 + dec_var_2_5 + dec_var_3_5 + dec_var_4_5
 + dec_var_5_5 + dec_var_6_5 + dec_var_7_5 + dec_var_8_5 + dec_var_9_5 <= 3
_C17: dec_var_0_6 + dec_var_1_6 + dec_var_2_6 + dec_var_3_6 + dec_var_4_6
 + dec_var_5_6 + dec_var_6_6 + dec_var_7_6 + dec_var_8_6 + dec_var_9_6 <= 1
_C18: dec_var_0_7 + dec_var_1_7 + dec_var_2_7 + dec_var_3_7 + dec_var_4_7
 + dec_var_5_7 + dec_var_6_7 + dec_var_7_7 + dec_var_8_7 + dec_var_9_7 <= 1
_C2: dec_var_1_0 + dec_var_1_1 + dec_var_1_2 + dec_var_1_3 + dec_var_1_4
 + dec_var_1_5 + dec_var_1_6 + dec_var_1_7 <= 1
_C3: dec_var_2_0 + dec_var_2_1 + dec_var_2_2 + dec_var_2_3 + dec_var_2_4
 + dec_var_2_5 + dec_var_2_6 + dec_var_2_7 <= 1
_C4: dec_var_3_0 + dec_var_3_1 + dec_var_3_2 + dec_var_3_3 + dec_var_3_4
 + dec_var_3_5 + dec_var_3_6 + dec_var_3_7 <= 1
_C5: dec_var_4_0 + dec_var_4_1 + dec_var_4_2 + dec_var_4_3 + dec_var_4_4
 + dec_var_4_5 + dec_var_4_6 + dec_var_4_7 <= 1
_C6: dec_var_5_0 + dec_var_5_1 + dec_var_5_2 + dec_var_5_3 + dec_var_5_4
 + dec_var_5_5 + dec_var_5_6 + dec_var_5_7 <= 1
_C7: dec_var_6_0 + dec_var_6_1 + dec_var_6_2 + dec_var_6_3 + dec_var_6_4
 + dec_var_6_5 + dec_var_6_6 + dec_var_6_7 <= 1
_C8: dec_var_7_0 + dec_var_7_1 + dec_var_7_2 + dec_var_7_3 + dec_var_7_4
 + dec_var_7_5 + dec_var_7_6 + dec_var_7_7 <= 1
_C9: dec_var_8_0 + dec_var_8_1 + dec_var_8_2 + dec_var_8_3 + dec_var_8_4
 + dec_var_8_5 + dec_var_8_6 + dec_var_8_7 <= 1
Binaries
dec_var_0_0
dec_var_0_1
dec_var_0_2
dec_var_0_3
dec_var_0_4
dec_var_0_5
dec_var_0_6
dec_var_0_7
dec_var_1_0
dec_var_1_1
dec_var_1_2
dec_var_1_3
dec_var_1_4
dec_var_1_5
dec_var_1_6
dec_var_1_7
dec_var_2_0
dec_var_2_1
dec_var_2_2
dec_var_2_3
dec_var_2_4
dec_var_2_5
dec_var_2_6
dec_var_2_7
dec_var_3_0
dec_var_3_1
dec_var_3_2
dec_var_3_3
dec_var_3_4
dec_var_3_5
dec_var_3_6
dec_var_3_7
dec_var_4_0
dec_var_4_1
dec_var_4_2
dec_var_4_3
dec_var_4_4
dec_var_4_5
dec_var_4_6
dec_var_4_7
dec_var_5_0
dec_var_5_1
dec_var_5_2
dec_var_5_3
dec_var_5_4
dec_var_5_5
dec_var_5_6
dec_var_5_7
dec_var_6_0
dec_var_6_1
dec_var_6_2
dec_var_6_3
dec_var_6_4
dec_var_6_5
dec_var_6_6
dec_var_6_7
dec_var_7_0
dec_var_7_1
dec_var_7_2
dec_var_7_3
dec_var_7_4
dec_var_7_5
dec_var_7_6
dec_var_7_7
dec_var_8_0
dec_var_8_1
dec_var_8_2
dec_var_8_3
dec_var_8_4
dec_var_8_5
dec_var_8_6
dec_var_8_7
dec_var_9_0
dec_var_9_1
dec_var_9_2
dec_var_9_3
dec_var_9_4
dec_var_9_5
dec_var_9_6
dec_var_9_7
End
